&CONTROL
    calculation   = 'nscf'
    prefix        = 'blg_05'
    outdir        = './tmp/'
    pseudo_dir    = '/home/kravt/QE/qe-7.4.1/pseudo'
    tprnfor       = .true.
    tstress       = .true.
    verbosity     = 'high'
    wf_collect    = .true.
/
&SYSTEM
    ibrav         = 0
    nat           = 4
    ntyp          = 1
    ecutwfc       = 60.0
    ecutrho       = 480
    occupations   = 'smearing'
    smearing      = 'mv'
    degauss       = 0.0025
    input_dft     = 'pbe'
    nbnd          = 12
    nosym         = .true.
    noinv         = .true.
/
&ELECTRONS
    conv_thr = 1.0d-10
    mixing_beta = 0.2
/

ATOMIC_SPECIES
C 12.01 C.pbe-n-kjpaw_psl.1.0.0.UPF

CELL_PARAMETERS (angstrom)
   2.466961611   0   0
  -1.233480806   2.136451425   0
   0   0   16.75  

ATOMIC_POSITIONS {crystal}
C   0   0   0.4   ! Layer 1, sublattice A
C   2/3   1/3   0.4   ! Layer 1, sublattice B
C   1/3   2/3   0.6   ! Layer 2, sublattice A (shifted for AB stacking)
C   0   0   0.6   ! Layer 2, sublattice B

K_POINTS crystal
64
    0.0000000000000000 0.0000000000000000 0.0000000000000000 0.0156250000000000
    0.0000000000000000 0.1250000000000000 0.0000000000000000 0.0156250000000000
    0.0000000000000000 0.2500000000000000 0.0000000000000000 0.0156250000000000
    0.0000000000000000 0.3750000000000000 0.0000000000000000 0.0156250000000000
    0.0000000000000000 0.5000000000000000 0.0000000000000000 0.0156250000000000
    0.0000000000000000 0.6250000000000000 0.0000000000000000 0.0156250000000000
    0.0000000000000000 0.7500000000000000 0.0000000000000000 0.0156250000000000
    0.0000000000000000 0.8750000000000000 0.0000000000000000 0.0156250000000000
    0.1250000000000000 0.0000000000000000 0.0000000000000000 0.0156250000000000
    0.1250000000000000 0.1250000000000000 0.0000000000000000 0.0156250000000000
    0.1250000000000000 0.2500000000000000 0.0000000000000000 0.0156250000000000
    0.1250000000000000 0.3750000000000000 0.0000000000000000 0.0156250000000000
    0.1250000000000000 0.5000000000000000 0.0000000000000000 0.0156250000000000
    0.1250000000000000 0.6250000000000000 0.0000000000000000 0.0156250000000000
    0.1250000000000000 0.7500000000000000 0.0000000000000000 0.0156250000000000
    0.1250000000000000 0.8750000000000000 0.0000000000000000 0.0156250000000000
    0.2500000000000000 0.0000000000000000 0.0000000000000000 0.0156250000000000
    0.2500000000000000 0.1250000000000000 0.0000000000000000 0.0156250000000000
    0.2500000000000000 0.2500000000000000 0.0000000000000000 0.0156250000000000
    0.2500000000000000 0.3750000000000000 0.0000000000000000 0.0156250000000000
    0.2500000000000000 0.5000000000000000 0.0000000000000000 0.0156250000000000
    0.2500000000000000 0.6250000000000000 0.0000000000000000 0.0156250000000000
    0.2500000000000000 0.7500000000000000 0.0000000000000000 0.0156250000000000
    0.2500000000000000 0.8750000000000000 0.0000000000000000 0.0156250000000000
    0.3750000000000000 0.0000000000000000 0.0000000000000000 0.0156250000000000
    0.3750000000000000 0.1250000000000000 0.0000000000000000 0.0156250000000000
    0.3750000000000000 0.2500000000000000 0.0000000000000000 0.0156250000000000
    0.3750000000000000 0.3750000000000000 0.0000000000000000 0.0156250000000000
    0.3750000000000000 0.5000000000000000 0.0000000000000000 0.0156250000000000
    0.3750000000000000 0.6250000000000000 0.0000000000000000 0.0156250000000000
    0.3750000000000000 0.7500000000000000 0.0000000000000000 0.0156250000000000
    0.3750000000000000 0.8750000000000000 0.0000000000000000 0.0156250000000000
    0.5000000000000000 0.0000000000000000 0.0000000000000000 0.0156250000000000
    0.5000000000000000 0.1250000000000000 0.0000000000000000 0.0156250000000000
    0.5000000000000000 0.2500000000000000 0.0000000000000000 0.0156250000000000
    0.5000000000000000 0.3750000000000000 0.0000000000000000 0.0156250000000000
    0.5000000000000000 0.5000000000000000 0.0000000000000000 0.0156250000000000
    0.5000000000000000 0.6250000000000000 0.0000000000000000 0.0156250000000000
    0.5000000000000000 0.7500000000000000 0.0000000000000000 0.0156250000000000
    0.5000000000000000 0.8750000000000000 0.0000000000000000 0.0156250000000000
    0.6250000000000000 0.0000000000000000 0.0000000000000000 0.0156250000000000
    0.6250000000000000 0.1250000000000000 0.0000000000000000 0.0156250000000000
    0.6250000000000000 0.2500000000000000 0.0000000000000000 0.0156250000000000
    0.6250000000000000 0.3750000000000000 0.0000000000000000 0.0156250000000000
    0.6250000000000000 0.5000000000000000 0.0000000000000000 0.0156250000000000
    0.6250000000000000 0.6250000000000000 0.0000000000000000 0.0156250000000000
    0.6250000000000000 0.7500000000000000 0.0000000000000000 0.0156250000000000
    0.6250000000000000 0.8750000000000000 0.0000000000000000 0.0156250000000000
    0.7500000000000000 0.0000000000000000 0.0000000000000000 0.0156250000000000
    0.7500000000000000 0.1250000000000000 0.0000000000000000 0.0156250000000000
    0.7500000000000000 0.2500000000000000 0.0000000000000000 0.0156250000000000
    0.7500000000000000 0.3750000000000000 0.0000000000000000 0.0156250000000000
    0.7500000000000000 0.5000000000000000 0.0000000000000000 0.0156250000000000
    0.7500000000000000 0.6250000000000000 0.0000000000000000 0.0156250000000000
    0.7500000000000000 0.7500000000000000 0.0000000000000000 0.0156250000000000
    0.7500000000000000 0.8750000000000000 0.0000000000000000 0.0156250000000000
    0.8750000000000000 0.0000000000000000 0.0000000000000000 0.0156250000000000
    0.8750000000000000 0.1250000000000000 0.0000000000000000 0.0156250000000000
    0.8750000000000000 0.2500000000000000 0.0000000000000000 0.0156250000000000
    0.8750000000000000 0.3750000000000000 0.0000000000000000 0.0156250000000000
    0.8750000000000000 0.5000000000000000 0.0000000000000000 0.0156250000000000
    0.8750000000000000 0.6250000000000000 0.0000000000000000 0.0156250000000000
    0.8750000000000000 0.7500000000000000 0.0000000000000000 0.0156250000000000
    0.8750000000000000 0.8750000000000000 0.0000000000000000 0.0156250000000000