num_bands     = 12
num_wann      = 4
num_iter      = 1000
write_hr      = .true.
write_xyz     = .true.

# disentanglement windows (tune if necessary)
dis_num_iter = 1000
dis_froz_min = -3.2
dis_froz_max = -2.7
dis_win_min = -10	
dis_win_max = 10

begin projections
random
end projections

mp_grid = 8 8 1

begin kpoints
    0.0000000000000000 0.0000000000000000 0.0000000000000000 0.0156250000000000
    0.0000000000000000 0.1250000000000000 0.0000000000000000 0.0156250000000000
    0.0000000000000000 0.2500000000000000 0.0000000000000000 0.0156250000000000
    0.0000000000000000 0.3750000000000000 0.0000000000000000 0.0156250000000000
    0.0000000000000000 0.5000000000000000 0.0000000000000000 0.0156250000000000
    0.0000000000000000 0.6250000000000000 0.0000000000000000 0.0156250000000000
    0.0000000000000000 0.7500000000000000 0.0000000000000000 0.0156250000000000
    0.0000000000000000 0.8750000000000000 0.0000000000000000 0.0156250000000000
    0.1250000000000000 0.0000000000000000 0.0000000000000000 0.0156250000000000
    0.1250000000000000 0.1250000000000000 0.0000000000000000 0.0156250000000000
    0.1250000000000000 0.2500000000000000 0.0000000000000000 0.0156250000000000
    0.1250000000000000 0.3750000000000000 0.0000000000000000 0.0156250000000000
    0.1250000000000000 0.5000000000000000 0.0000000000000000 0.0156250000000000
    0.1250000000000000 0.6250000000000000 0.0000000000000000 0.0156250000000000
    0.1250000000000000 0.7500000000000000 0.0000000000000000 0.0156250000000000
    0.1250000000000000 0.8750000000000000 0.0000000000000000 0.0156250000000000
    0.2500000000000000 0.0000000000000000 0.0000000000000000 0.0156250000000000
    0.2500000000000000 0.1250000000000000 0.0000000000000000 0.0156250000000000
    0.2500000000000000 0.2500000000000000 0.0000000000000000 0.0156250000000000
    0.2500000000000000 0.3750000000000000 0.0000000000000000 0.0156250000000000
    0.2500000000000000 0.5000000000000000 0.0000000000000000 0.0156250000000000
    0.2500000000000000 0.6250000000000000 0.0000000000000000 0.0156250000000000
    0.2500000000000000 0.7500000000000000 0.0000000000000000 0.0156250000000000
    0.2500000000000000 0.8750000000000000 0.0000000000000000 0.0156250000000000
    0.3750000000000000 0.0000000000000000 0.0000000000000000 0.0156250000000000
    0.3750000000000000 0.1250000000000000 0.0000000000000000 0.0156250000000000
    0.3750000000000000 0.2500000000000000 0.0000000000000000 0.0156250000000000
    0.3750000000000000 0.3750000000000000 0.0000000000000000 0.0156250000000000
    0.3750000000000000 0.5000000000000000 0.0000000000000000 0.0156250000000000
    0.3750000000000000 0.6250000000000000 0.0000000000000000 0.0156250000000000
    0.3750000000000000 0.7500000000000000 0.0000000000000000 0.0156250000000000
    0.3750000000000000 0.8750000000000000 0.0000000000000000 0.0156250000000000
    0.5000000000000000 0.0000000000000000 0.0000000000000000 0.0156250000000000
    0.5000000000000000 0.1250000000000000 0.0000000000000000 0.0156250000000000
    0.5000000000000000 0.2500000000000000 0.0000000000000000 0.0156250000000000
    0.5000000000000000 0.3750000000000000 0.0000000000000000 0.0156250000000000
    0.5000000000000000 0.5000000000000000 0.0000000000000000 0.0156250000000000
    0.5000000000000000 0.6250000000000000 0.0000000000000000 0.0156250000000000
    0.5000000000000000 0.7500000000000000 0.0000000000000000 0.0156250000000000
    0.5000000000000000 0.8750000000000000 0.0000000000000000 0.0156250000000000
    0.6250000000000000 0.0000000000000000 0.0000000000000000 0.0156250000000000
    0.6250000000000000 0.1250000000000000 0.0000000000000000 0.0156250000000000
    0.6250000000000000 0.2500000000000000 0.0000000000000000 0.0156250000000000
    0.6250000000000000 0.3750000000000000 0.0000000000000000 0.0156250000000000
    0.6250000000000000 0.5000000000000000 0.0000000000000000 0.0156250000000000
    0.6250000000000000 0.6250000000000000 0.0000000000000000 0.0156250000000000
    0.6250000000000000 0.7500000000000000 0.0000000000000000 0.0156250000000000
    0.6250000000000000 0.8750000000000000 0.0000000000000000 0.0156250000000000
    0.7500000000000000 0.0000000000000000 0.0000000000000000 0.0156250000000000
    0.7500000000000000 0.1250000000000000 0.0000000000000000 0.0156250000000000
    0.7500000000000000 0.2500000000000000 0.0000000000000000 0.0156250000000000
    0.7500000000000000 0.3750000000000000 0.0000000000000000 0.0156250000000000
    0.7500000000000000 0.5000000000000000 0.0000000000000000 0.0156250000000000
    0.7500000000000000 0.6250000000000000 0.0000000000000000 0.0156250000000000
    0.7500000000000000 0.7500000000000000 0.0000000000000000 0.0156250000000000
    0.7500000000000000 0.8750000000000000 0.0000000000000000 0.0156250000000000
    0.8750000000000000 0.0000000000000000 0.0000000000000000 0.0156250000000000
    0.8750000000000000 0.1250000000000000 0.0000000000000000 0.0156250000000000
    0.8750000000000000 0.2500000000000000 0.0000000000000000 0.0156250000000000
    0.8750000000000000 0.3750000000000000 0.0000000000000000 0.0156250000000000
    0.8750000000000000 0.5000000000000000 0.0000000000000000 0.0156250000000000
    0.8750000000000000 0.6250000000000000 0.0000000000000000 0.0156250000000000
    0.8750000000000000 0.7500000000000000 0.0000000000000000 0.0156250000000000
    0.8750000000000000 0.8750000000000000 0.0000000000000000 0.0156250000000000
end kpoints

begin unit_cell_cart
angstrom
   2.466961611   0   0
  -1.233480806   2.136451425   0
   0   0   16.75  
end unit_cell_cart

begin atoms_cart
bohr
C  0.0000   0.0000   7.78
C  1.4200   2.4600   7.78
C  0.0000   0.0000  11.13
C  2.8400   1.2300  11.13
end atoms_cart