&CONTROL
    calculation = 'scf'
    prefix = 'bulk_bp'
    outdir = '/home/kravt/QE/qe-7.4.1/BP/Bulk/D = 0/tmp'
    pseudo_dir = '/home/kravt/QE/qe-7.4.1/pseudo'
    tprnfor = .true.
    tstress = .true.
    verbosity = 'high'
    tefield = .true.
    dipfield = .true.
/
&SYSTEM
ibrav = 8
celldm(1) = 6.254993
celldm(2) = 1.323262
celldm(3) = 3.172205
nat = 8
ntyp = 1
ecutwfc = 60.0
ecutrho = 480.0
occupations = 'tetrahedra_opt'
!smearing = 'mv'
!degauss = 0.01
input_dft = 'pbe'
nbnd = 40
edir = 3
emaxpos = 0.9
eopreg = 0.05
eamp = 0 ! 0.5 V/nm in a.u. (0.05 V/Å / 51.42)
vdw_corr = 'dft-d3' ! Uncomment after testing (requires DFT-D3 support)
/
&ELECTRONS
conv_thr = 2.0d-8
mixing_beta = 0.2
/
ATOMIC_SPECIES
P 30.974 P.pbe-n-kjpaw_psl.1.0.0.UPF
ATOMIC_POSITIONS {crystal}
P 0.000 0.090 0.098
P 0.000 0.910 0.902
P 0.000 0.590 0.402
P 0.000 0.410 0.598
P 0.500 0.090 0.598
P 0.500 0.910 0.402
P 0.500 0.590 0.902
P 0.500 0.410 0.098
K_POINTS automatic
12 12 2  0 0 0
HUBBARD (ortho-atomic)
U P-3p 2.0

