&CONTROL
    calculation = 'vc-relax'
    prefix = 'bulk_bp'
    outdir = '/home/kravt/QE/qe-7.4.1/BP/Bulk/D = 0p8/tmp'
    pseudo_dir = '/home/kravt/QE/qe-7.4.1/pseudo'
    tprnfor = .true.
    tstress = .true.
    verbosity = 'high'
    forc_conv_thr = 1.0E-4  ! Explicitly set force threshold
    nstep = 100             ! Max ionic steps
    tefield = .true.
    dipfield = .true.
/
&SYSTEM
    ibrav = 8
    celldm(1) = 6.26
    celldm(2) = 1.342276472
    celldm(3) = 3.239468046
    nat = 8
    ntyp = 1
    ecutwfc = 60.0
    ecutrho = 480.0
    occupations = 'smearing'
    smearing = 'marzari-vanderbilt'
    degauss = 0.01      ! Slightly larger, ~0.14 eV
    input_dft = 'pbe'
    nbnd = 40
    vdw_corr = 'dft-d3'
    edir = 3
    emaxpos = 0.9
    eopreg = 0.05
    eamp = 0.015488 ! 0.5 V/nm
/
&ELECTRONS
    conv_thr = 1.0d-7   ! Loosened for stability
    mixing_beta = 0.4   ! Increased for smoother convergence
/
&IONS
    ion_dynamics = 'bfgs'
/
&CELL
    cell_dynamics = 'bfgs'
    press_conv_thr = 0.5  ! Explicitly set pressure threshold (kbar)
/
ATOMIC_SPECIES
P 30.974 P.pbe-n-kjpaw_psl.1.0.0.UPF

ATOMIC_POSITIONS (crystal)
P               -0.0000000000        0.0826233420        0.0997223897
P               -0.0000000000        0.9173766580        0.9002776103
P               -0.0000000000        0.5826234784        0.4002776822
P               -0.0000000000        0.4173765216        0.5997223178
P                0.5000000000        0.0826235720        0.5997223171
P                0.5000000000        0.9173764280        0.4002776829
P                0.5000000000        0.5826233750        0.9002776116
P                0.5000000000        0.4173766250        0.0997223884

K_POINTS automatic
12 12 4 0 0 0
