&CONTROL
    calculation = 'bands'
    prefix = 'bulk_bp'
    outdir = '/home/kravt/QE/qe-7.4.1/BP/Bulk/D = 0/tmp'
    pseudo_dir = '/home/kravt/QE/qe-7.4.1/pseudo'
    tprnfor = .true.
    tstress = .true.
    verbosity = 'high'
    !tefield = .true.
    !dipfield = .true.
/
&SYSTEM
ibrav = 8
celldm(1) = 6.26
celldm(2) = 1.342276472
celldm(3) = 3.239468046
lspinorb=.true.
noncolin=.true.
nat = 8
ntyp = 1
ecutwfc = 60.0
ecutrho = 480.0
occupations = 'smearing'
smearing = 'cold'
degauss = 0.01
input_dft = 'pbe'
nbnd = 80
!edir = 3
!emaxpos = 0.9
!eopreg = 0.05
!eamp = 0 ! 0.5 V/nm in a.u. (0.05 V/Å / 51.42)
vdw_corr = 'dft-d3' ! Uncomment after testing (requires DFT-D3 support)
/
&ELECTRONS
conv_thr = 1.0d-8
mixing_beta = 0.2
/
ATOMIC_SPECIES
P 30.974 P.rel-pbe-n-rrkjus_psl.0.1.UPF

!Relaxed values
ATOMIC_POSITIONS (crystal)
P               -0.0000000000        0.0826233420        0.0997223897
P               -0.0000000000        0.9173766580        0.9002776103
P               -0.0000000000        0.5826234784        0.4002776822
P               -0.0000000000        0.4173765216        0.5997223178
P                0.5000000000        0.0826235720        0.5997223171
P                0.5000000000        0.9173764280        0.4002776829
P                0.5000000000        0.5826233750        0.9002776116
P                0.5000000000        0.4173766250        0.0997223884

HUBBARD (ortho-atomic)
U P-3p 2.0

K_POINTS {crystal_b}
6
0.000 0.000 0.000 20  ! Γ
0.500 0.000 0.000 20  ! X
0.500 0.500 0.000 20  ! S
0.000 0.500 0.000 20  ! Y
0.000 0.000 0.000 20  ! Γ
0.000 0.000 0.500 20  ! Z