&CONTROL
    calculation = 'vc-relax'
    prefix = 'bulk_bp'
    outdir = '/home/kravt/QE/qe-7.4.1/BP/Bulk/D = 0/tmp'
    pseudo_dir = '/home/kravt/QE/qe-7.4.1/pseudo'
    tprnfor = .true.
    tstress = .true.
    verbosity = 'high'
    forc_conv_thr = 1.0E-4  ! Explicitly set force threshold
    nstep = 100             ! Max ionic steps
/
&SYSTEM
    ibrav = 8
    celldm(1) = 6.262   ! 3.314 Å / 0.529177
    celldm(2) = 1.319   ! 4.374 / 3.314
    celldm(3) = 3.164   ! 10.484 / 3.314
    nat = 8
    ntyp = 1
    ecutwfc = 60.0
    ecutrho = 480.0
    occupations = 'smearing'
    smearing = 'marzari-vanderbilt'
    degauss = 0.01      ! Slightly larger, ~0.14 eV
    input_dft = 'pbe'
    nbnd = 40
    vdw_corr = 'dft-d3'
/
&ELECTRONS
    conv_thr = 1.0d-7   ! Loosened for stability
    mixing_beta = 0.4   ! Increased for smoother convergence
/
&IONS
    ion_dynamics = 'bfgs'
/
&CELL
    cell_dynamics = 'bfgs'
    press_conv_thr = 0.5  ! Explicitly set pressure threshold (kbar)
/
ATOMIC_SPECIES
P 30.974 P.pbe-n-kjpaw_psl.1.0.0.UPF
ATOMIC_POSITIONS crystal
P 0.000 0.090 0.098
P 0.000 0.910 0.902
P 0.000 0.590 0.402
P 0.000 0.410 0.598
P 0.500 0.090 0.598
P 0.500 0.910 0.402
P 0.500 0.590 0.902
P 0.500 0.410 0.098
K_POINTS automatic
12 12 4 0 0 0