&INPUTPP
   outdir          = './tmp/'
   prefix          = 'blg_05'
   seedname        = 'blg_05'
   spin_component  = 'none'
   write_mmn       = .true.
   write_amn       = .true.
   write_unk       = .false.
   write_eig       = .true.
/
