num_bands     = 12
num_wann      = 4
num_iter      = 1000
write_hr      = .true.
write_xyz     = .true.

# disentanglement windows (tune if necessary)
dis_num_iter = 1000
dis_froz_min = -1	
dis_froz_max = 1
dis_win_min = -10	
dis_win_max = 10

begin projections
C:pz
end projections

mp_grid = 8 8 1

begin kpoints
    0.0000000000000000 0.0000000000000000 0.0000000000000000 0.0156250000000000
    0.0000000000000000 0.1250000000000000 0.0000000000000000 0.0156250000000000
    0.0000000000000000 0.2500000000000000 0.0000000000000000 0.0156250000000000
    0.0000000000000000 0.3750000000000000 0.0000000000000000 0.0156250000000000
    0.0000000000000000 0.5000000000000000 0.0000000000000000 0.0156250000000000
    0.0000000000000000 0.6250000000000000 0.0000000000000000 0.0156250000000000
    0.0000000000000000 0.7500000000000000 0.0000000000000000 0.0156250000000000
    0.0000000000000000 0.8750000000000000 0.0000000000000000 0.0156250000000000
    0.1250000000000000 0.0000000000000000 0.0000000000000000 0.0156250000000000
    0.1250000000000000 0.1250000000000000 0.0000000000000000 0.0156250000000000
    0.1250000000000000 0.2500000000000000 0.0000000000000000 0.0156250000000000
    0.1250000000000000 0.3750000000000000 0.0000000000000000 0.0156250000000000
    0.1250000000000000 0.5000000000000000 0.0000000000000000 0.0156250000000000
    0.1250000000000000 0.6250000000000000 0.0000000000000000 0.0156250000000000
    0.1250000000000000 0.7500000000000000 0.0000000000000000 0.0156250000000000
    0.1250000000000000 0.8750000000000000 0.0000000000000000 0.0156250000000000
    0.2500000000000000 0.0000000000000000 0.0000000000000000 0.0156250000000000
    0.2500000000000000 0.1250000000000000 0.0000000000000000 0.0156250000000000
    0.2500000000000000 0.2500000000000000 0.0000000000000000 0.0156250000000000
    0.2500000000000000 0.3750000000000000 0.0000000000000000 0.0156250000000000
    0.2500000000000000 0.5000000000000000 0.0000000000000000 0.0156250000000000
    0.2500000000000000 0.6250000000000000 0.0000000000000000 0.0156250000000000
    0.2500000000000000 0.7500000000000000 0.0000000000000000 0.0156250000000000
    0.2500000000000000 0.8750000000000000 0.0000000000000000 0.0156250000000000
    0.3750000000000000 0.0000000000000000 0.0000000000000000 0.0156250000000000
    0.3750000000000000 0.1250000000000000 0.0000000000000000 0.0156250000000000
    0.3750000000000000 0.2500000000000000 0.0000000000000000 0.0156250000000000
    0.3750000000000000 0.3750000000000000 0.0000000000000000 0.0156250000000000
    0.3750000000000000 0.5000000000000000 0.0000000000000000 0.0156250000000000
    0.3750000000000000 0.6250000000000000 0.0000000000000000 0.0156250000000000
    0.3750000000000000 0.7500000000000000 0.0000000000000000 0.0156250000000000
    0.3750000000000000 0.8750000000000000 0.0000000000000000 0.0156250000000000
    0.5000000000000000 0.0000000000000000 0.0000000000000000 0.0156250000000000
    0.5000000000000000 0.1250000000000000 0.0000000000000000 0.0156250000000000
    0.5000000000000000 0.2500000000000000 0.0000000000000000 0.0156250000000000
    0.5000000000000000 0.3750000000000000 0.0000000000000000 0.0156250000000000
    0.5000000000000000 0.5000000000000000 0.0000000000000000 0.0156250000000000
    0.5000000000000000 0.6250000000000000 0.0000000000000000 0.0156250000000000
    0.5000000000000000 0.7500000000000000 0.0000000000000000 0.0156250000000000
    0.5000000000000000 0.8750000000000000 0.0000000000000000 0.0156250000000000
    0.6250000000000000 0.0000000000000000 0.0000000000000000 0.0156250000000000
    0.6250000000000000 0.1250000000000000 0.0000000000000000 0.0156250000000000
    0.6250000000000000 0.2500000000000000 0.0000000000000000 0.0156250000000000
    0.6250000000000000 0.3750000000000000 0.0000000000000000 0.0156250000000000
    0.6250000000000000 0.5000000000000000 0.0000000000000000 0.0156250000000000
    0.6250000000000000 0.6250000000000000 0.0000000000000000 0.0156250000000000
    0.6250000000000000 0.7500000000000000 0.0000000000000000 0.0156250000000000
    0.6250000000000000 0.8750000000000000 0.0000000000000000 0.0156250000000000
    0.7500000000000000 0.0000000000000000 0.0000000000000000 0.0156250000000000
    0.7500000000000000 0.1250000000000000 0.0000000000000000 0.0156250000000000
    0.7500000000000000 0.2500000000000000 0.0000000000000000 0.0156250000000000
    0.7500000000000000 0.3750000000000000 0.0000000000000000 0.0156250000000000
    0.7500000000000000 0.5000000000000000 0.0000000000000000 0.0156250000000000
    0.7500000000000000 0.6250000000000000 0.0000000000000000 0.0156250000000000
    0.7500000000000000 0.7500000000000000 0.0000000000000000 0.0156250000000000
    0.7500000000000000 0.8750000000000000 0.0000000000000000 0.0156250000000000
    0.8750000000000000 0.0000000000000000 0.0000000000000000 0.0156250000000000
    0.8750000000000000 0.1250000000000000 0.0000000000000000 0.0156250000000000
    0.8750000000000000 0.2500000000000000 0.0000000000000000 0.0156250000000000
    0.8750000000000000 0.3750000000000000 0.0000000000000000 0.0156250000000000
    0.8750000000000000 0.5000000000000000 0.0000000000000000 0.0156250000000000
    0.8750000000000000 0.6250000000000000 0.0000000000000000 0.0156250000000000
    0.8750000000000000 0.7500000000000000 0.0000000000000000 0.0156250000000000
    0.8750000000000000 0.8750000000000000 0.0000000000000000 0.0156250000000000
end kpoints

begin unit_cell_cart
angstrom
   2.466961611   0.000000000   0.000000000
  -1.233480806   2.136451425   0.000000000
   0.000000000   0.000000000   25.000000000
end unit_cell_cart

begin atoms_frac
C   0   0   0.433   ! Layer 1, sublattice A
C   2/3   1/3   0.433   ! Layer 1, sublattice B
C   1/3   2/3   0.567   ! Layer 2, sublattice A (shifted for AB stacking)
C   0   0   0.567   ! Layer 2, sublattice B
end atoms_frac